1236.66 0
0 17 116 106 107 108 109 120 121 122 111 125 112 0
0 76 77 64 63 79 67 68 70 69 110 123 124 126 127 128 129 113 81 66 0
0 72 75 1 62 52 53 102 104 101 100 98 99 36 35 37 95 39 38 96 97 105 55 54 61 60 59 0
0 46 118 18 117 131 114 115 119 130 65 19 0
0 73 74 78 133 33 80 132 71 0
0 91 21 25 26 27 28 29 93 94 45 43 44 40 3 41 42 2 4 5 6 7 8 9 10 12 11 14 88 15 13 16 92 90 89 87 86 84 85 83 20 82 0
0 22 24 23 31 30 58 57 56 103 51 50 49 48 34 32 134 47 0
